p edge 18 66
e 1 2
e 1 3
e 1 4
e 1 5
e 1 6
e 1 8
e 1 9
e 1 10
e 1 11
e 1 12
e 2 3
e 2 4
e 2 5
e 2 6
e 2 7
e 2 9
e 2 10
e 2 11
e 2 12
e 3 4
e 3 5
e 3 6
e 3 7
e 3 8
e 3 10
e 3 11
e 3 12
e 4 5
e 4 6
e 4 7
e 4 8
e 4 9
e 4 11
e 4 12
e 5 6
e 5 7
e 5 8
e 5 9
e 5 10
e 5 12
e 6 7
e 6 8
e 6 9
e 6 10
e 6 11
e 7 14
e 8 14
e 9 14
e 10 14
e 11 14
e 12 14
e 13 14
e 13 15
e 13 16
e 13 17
e 13 18
e 14 15
e 14 16
e 14 17
e 14 18
e 15 16
e 15 17
e 15 18
e 16 17
e 16 18
e 17 18
